
Log started (V11.0.0) Thu May 15 09:13:53 2008

Tried aggregator 1 time.
Reduced MIP has 210 rows, 2001 columns, and 4010 nonzeros.
Presolve time =    0.02 sec.
Clique table members: 200.
MIP emphasis: balance optimality and feasibility.
MIP search method: dynamic search.
Parallel mode: none, using 1 thread.
Root relaxation solution time =    0.03 sec.

        Nodes                                         Cuts/
   Node  Left     Objective  IInf  Best Integer     Best Node    ItCnt     Gap

*     0+    0                        22053.0000     2027.7955      252   90.80%
*     0+    0                         2035.0000     2027.7955      252    0.35%
      0     0     2028.0000    18     2035.0000      Fract: 6      261    0.34%
      0     0     2028.0000    23     2035.0000     Covers: 1      268    0.34%
      0     0     2028.0000    24     2035.0000     Covers: 2      272    0.34%
*     0+    0                         2034.0000     2028.0000      272    0.29%
      0     2     2028.0000    24     2034.0000     2028.0000      272    0.29%
    100    94     2030.1825    19     2034.0000     2028.0000     2680    0.29%
    200   161     2031.0000    15     2034.0000     2028.0000     7096    0.29%
    300   179     2032.0000    19     2034.0000     2028.0000     9659    0.29%
    400   188     2028.0000    17     2034.0000     2028.0000    12863    0.29%
*   420+  181                         2032.0000     2028.0000    13287    0.20%
    500   252     2030.0000    16     2032.0000     2028.0000    15315    0.20%
*   531+  186                         2031.0000     2029.0000    17257    0.10%
*   591+  107                         2030.0000     2029.0000    18530    0.05%
    600   109     2029.0000    17     2030.0000     2029.0000    18690    0.05%
    700    80     2029.0000    10     2030.0000     2029.0000    22274    0.05%
    800   128     2029.0000    18     2030.0000     2029.0000    26079    0.05%
    900   188     2029.0000    18     2030.0000     2029.0000    28525    0.05%
   1000   256     2029.0000    28     2030.0000     2029.0000    31743    0.05%
Elapsed time =   9.38 sec. (tree size =  0.18 MB, solutions = 6)
   1100   324     2029.0000    37     2030.0000     2029.0000    35110    0.05%
   1200   380     2029.0000    18     2030.0000     2029.0000    39452    0.05%
   1300   406     2029.0000    14     2030.0000     2029.0000    47137    0.05%
   1400   450    infeasible           2030.0000     2029.0000    59577    0.05%
   1500   486     2029.0000    16     2030.0000     2029.0000    70919    0.05%
   1600   546     2029.0000    20     2030.0000     2029.0000    78953    0.05%
   1700   572    infeasible           2030.0000     2029.0000    85932    0.05%
   1800   640     2029.0000    19     2030.0000     2029.0000    91948    0.05%
   1900   698     2029.0000    24     2030.0000     2029.0000   100269    0.05%
   2000   750    infeasible           2030.0000     2029.0000   110729    0.05%
Elapsed time =  23.76 sec. (tree size =  0.55 MB, solutions = 6)
   2100   799     2029.0000    30     2030.0000     2029.0000   122831    0.05%
   2200   863     2029.0000    22     2030.0000     2029.0000   132221    0.05%
   2300   925     2029.0000    21     2030.0000     2029.0000   140721    0.05%
   2400   979     2029.0000    33     2030.0000     2029.0000   148806    0.05%
   2500  1009    infeasible           2030.0000     2029.0000   161167    0.05%
   2600  1023     2029.0000    18     2030.0000     2029.0000   180848    0.05%
   2700  1043     2029.0000    24     2030.0000     2029.0000   194218    0.05%
   2800  1097     2029.0000    20     2030.0000     2029.0000   206848    0.05%
   2900  1119    infeasible           2030.0000     2029.0000   221089    0.05%
   3000  1127     2029.0000    26     2030.0000     2029.0000   240065    0.05%
Elapsed time =  50.66 sec. (tree size =  0.85 MB, solutions = 6)
   3100  1137     2029.0000    32     2030.0000     2029.0000   257985    0.05%
   3200  1181     2029.0000    30     2030.0000     2029.0000   273493    0.05%
*  3231+    1                         2029.0000     2029.0000   276415    0.00%

Cover cuts applied:  293
Mixed integer rounding cuts applied:  6
Zero-half cuts applied:  1
Gomory fractional cuts applied:  15

Solution pool: 7 solutions saved.

MIP - Integer optimal solution:  Objective = 2.0290000000e+003
Solution time =   59.23 sec.  Iterations = 276415  Nodes = 3231


Incumbent solution
Variable Name           Solution Value
Cmax                       2029.000000
X_1_4                         1.000000
X_2_5                         1.000000
X_3_3                         1.000000
X_4_5                         1.000000
X_5_7                         1.000000
X_6_1                         1.000000
X_7_1                         1.000000
X_8_4                         1.000000
X_9_8                         1.000000
X_10_2                        1.000000
X_11_8                        1.000000
X_12_9                        1.000000
X_13_8                        1.000000
X_14_10                       1.000000
X_15_9                        1.000000
X_16_3                        1.000000
X_17_5                        1.000000
X_18_8                        1.000000
X_19_7                        1.000000
X_20_5                        1.000000
X_21_2                        1.000000
X_22_4                        1.000000
X_23_5                        1.000000
X_24_5                        1.000000
X_25_6                        1.000000
X_26_2                        1.000000
X_27_3                        1.000000
X_28_6                        1.000000
X_29_3                        1.000000
X_30_7                        1.000000
X_31_4                        1.000000
X_32_9                        1.000000
X_33_2                        1.000000
X_34_8                        1.000000
X_35_10                       1.000000
X_36_8                        1.000000
X_37_7                        1.000000
X_38_1                        1.000000
X_39_4                        1.000000
X_40_4                        1.000000
X_41_7                        1.000000
X_42_7                        1.000000
X_43_3                        1.000000
X_44_9                        1.000000
X_45_10                       1.000000
X_46_9                        1.000000
X_47_3                        1.000000
X_48_6                        1.000000
X_49_9                        1.000000
X_50_4                        1.000000
X_51_5                        1.000000
X_52_7                        1.000000
X_53_9                        1.000000
X_54_2                        1.000000
X_55_5                        1.000000
X_56_6                        1.000000
X_57_7                        1.000000
X_58_2                        1.000000
X_59_3                        1.000000
X_60_1                        1.000000
X_61_5                        1.000000
X_62_10                       1.000000
X_63_8                        1.000000
X_64_5                        1.000000
X_65_2                        1.000000
X_66_3                        1.000000
X_67_10                       1.000000
X_68_6                        1.000000
X_69_2                        1.000000
X_70_9                        1.000000
X_71_10                       1.000000
X_72_1                        1.000000
X_73_7                        1.000000
X_74_5                        1.000000
X_75_9                        1.000000
X_76_7                        1.000000
X_77_5                        1.000000
X_78_10                       1.000000
X_79_6                        1.000000
X_80_8                        1.000000
X_81_10                       1.000000
X_82_6                        1.000000
X_83_5                        1.000000
X_84_5                        1.000000
X_85_6                        1.000000
X_86_4                        1.000000
X_87_9                        1.000000
X_88_2                        1.000000
X_89_10                       1.000000
X_90_1                        1.000000
X_91_3                        1.000000
X_92_10                       1.000000
X_93_1                        1.000000
X_94_9                        1.000000
X_95_8                        1.000000
X_96_2                        1.000000
X_97_3                        1.000000
X_98_9                        1.000000
X_99_4                        1.000000
X_100_8                       1.000000
X_101_2                       1.000000
X_102_8                       1.000000
X_103_7                       1.000000
X_104_4                       1.000000
X_105_2                       1.000000
X_106_9                       1.000000
X_107_1                       1.000000
X_108_7                       1.000000
X_109_10                      1.000000
X_110_4                       1.000000
X_111_2                       1.000000
X_112_5                       1.000000
X_113_1                       1.000000
X_114_4                       1.000000
X_115_10                      1.000000
X_116_4                       1.000000
X_117_2                       1.000000
X_118_5                       1.000000
X_119_4                       1.000000
X_120_7                       1.000000
X_121_6                       1.000000
X_122_7                       1.000000
X_123_10                      1.000000
X_124_1                       1.000000
X_125_2                       1.000000
X_126_7                       1.000000
X_127_2                       1.000000
X_128_10                      1.000000
X_129_4                       1.000000
X_130_9                       1.000000
X_131_1                       1.000000
X_132_6                       1.000000
X_133_1                       1.000000
X_134_1                       1.000000
X_135_9                       1.000000
X_136_1                       1.000000
X_137_1                       1.000000
X_138_8                       1.000000
X_139_9                       1.000000
X_140_10                      1.000000
X_141_10                      1.000000
X_142_3                       1.000000
X_143_5                       1.000000
X_144_2                       1.000000
X_145_8                       1.000000
X_146_10                      1.000000
X_147_6                       1.000000
X_148_5                       1.000000
X_149_5                       1.000000
X_150_7                       1.000000
X_151_3                       1.000000
X_152_3                       1.000000
X_153_6                       1.000000
X_154_2                       1.000000
X_155_1                       1.000000
X_156_6                       1.000000
X_157_7                       1.000000
X_158_6                       1.000000
X_159_8                       1.000000
X_160_4                       1.000000
X_161_9                       1.000000
X_162_9                       1.000000
X_163_6                       1.000000
X_164_6                       1.000000
X_165_9                       1.000000
X_166_1                       1.000000
X_167_6                       1.000000
X_168_7                       1.000000
X_169_2                       1.000000
X_170_8                       1.000000
X_171_1                       1.000000
X_172_7                       1.000000
X_173_3                       1.000000
X_174_1                       1.000000
X_175_3                       1.000000
X_176_6                       1.000000
X_177_3                       1.000000
X_178_5                       1.000000
X_179_3                       1.000000
X_180_3                       1.000000
X_181_2                       1.000000
X_182_1                       1.000000
X_183_6                       1.000000
X_184_8                       1.000000
X_185_8                       1.000000
X_186_10                      1.000000
X_187_3                       1.000000
X_188_3                       1.000000
X_189_4                       1.000000
X_190_4                       1.000000
X_191_10                      1.000000
X_192_9                       1.000000
X_193_4                       1.000000
X_194_8                       1.000000
X_195_8                       1.000000
X_196_4                       1.000000
X_197_10                      1.000000
X_198_7                       1.000000
X_199_8                       1.000000
X_200_6                       1.000000
All other variables in the range 1-2001 are 0.
